(set-option :print-success false)
(set-logic QF_UF)
(declare-sort x136 0)
(declare-sort x56 0)
(declare-fun x100 () x56)
(declare-fun x28 () x56)
(declare-fun x85 () x56)
(declare-fun x8 (x56 x56) x56)
(declare-fun x18 () x56)
(declare-fun x64 () x56)
(declare-fun x139 (x56 x56) x56)
(assert (let ((x37 (x139 x64 x100)) (x128 (x139 x28 x28)) (x38 (x139 x18 x64)) (x91 (x139 x85 x100)) (x95 (x139 x64 x85)) (x101 (x139 x28 x100)) (x55 (x139 x18 x28)) (x34 (x139 x28 x64)) (x9 (x139 x100 x28)) (x132 (x139 x28 x85)) (x19 (x139 x100 x100)) (x103 (x139 x18 x85)) (x133 (x139 x85 x85)) (x20 (x139 x85 x18)) (x53 (x139 x18 x18)) (x121 (x139 x85 x64)) (x156 (x139 x64 x28)) (x89 (x139 x18 x100)) (x23 (x139 x100 x64)) (x155 (x139 x28 x18)) (x145 (x139 x85 x28)) (x17 (x139 x64 x64)) (x82 (x139 x100 x18)) (x151 (x139 x64 x18)) (x12 (x139 x100 x85))) (let ((x42 (not (= x133 x85))) (x66 (not (= x55 x18))) (x25 (not (= x101 x28))) (x80 (not (= x85 x91))) (x90 (not (= x132 x28))) (x123 (not (= x17 x64))) (x11 (not (= x18 x53))) (x153 (not (= x28 x128))) (x86 (not (= x9 x100))) (x96 (not (= x145 x85))) (x143 (not (= x28 x34))) (x44 (not (= x100 x19))) (x114 (not (= x64 x151))) (x146 (not (= x38 x18))) (x31 (not (= x89 x18))) (x29 (not (= x100 x82))) (x127 (not (= x155 x28))) (x47 (not (= x18 x103))) (x150 (not (= x100 x12))) (x48 (not (= x20 x85))) (x109 (not (= x23 x100))) (x112 (not (= x121 x85))) (x49 (not (= x64 x37))) (x117 (not (= x64 x156))) (x74 (not (= x64 x95)))) (or (and (and (and (and (and (or (not (= x82 x28)) x31) (and (or x49 (not (= x23 x28))) (or (not (= x28 x12)) x80))) (or (not (= x19 x28)) x44)) (or x25 (not (= x28 x9)))) (and (and (and (or x90 (not (= x145 x28))) (and (or x150 (not (= x28 x91))) (and (or x47 (not (= x20 x28))) (and (or (not (= x133 x28)) x42) (or (not (= x121 x28)) x74))))) (and (and (and (or (not (= x151 x28)) x146) (and (or x112 (not (= x95 x28))) (or x123 (not (= x17 x28))))) (or (not (= x37 x28)) x109)) (or x143 (not (= x28 x156))))) (and (or x127 (not (= x28 x55))) (and (and (or x11 (not (= x28 x53))) (and (or (not (= x103 x28)) x48) (or (not (= x38 x28)) x114))) (or x29 (not (= x89 x28))))))) (and (and (and (or x127 x66) (and (or x96 x90) (or x143 x117))) (or x86 x25)) (or x153 x153))) (or (or (and (and (and (and (or (not (= x18 x155)) x66) (and (or (not (= x18 x132)) x96) (or (not (= x34 x18)) x117))) (or (not (= x18 x101)) x86)) (or x153 (not (= x18 x128)))) (and (and (and (and (and (and (and (or x42 (not (= x133 x18))) (or x74 (not (= x121 x18)))) (or (not (= x20 x18)) x47)) (or (not (= x18 x91)) x150)) (or (not (= x145 x18)) x90)) (and (or x143 (not (= x156 x18))) (and (or (not (= x37 x18)) x109) (and (or (not (= x18 x151)) x146) (and (or (not (= x17 x18)) x123) (or (not (= x95 x18)) x112)))))) (and (and (and (or x11 x11) (and (or x47 x48) (or x114 x146))) (or x29 x31)) (or x66 x127))) (and (and (and (or x31 (not (= x18 x82))) (and (or x49 (not (= x18 x23))) (or x80 (not (= x12 x18))))) (or x44 (not (= x18 x19)))) (or (not (= x9 x18)) x25)))) (or (and (and (and (and (and (and (and (or x114 (not (= x38 x85))) (or x48 (not (= x85 x103)))) (or (not (= x53 x85)) x11)) (or x29 (not (= x85 x89)))) (or x127 (not (= x85 x55)))) (and (and (and (and (or x146 (not (= x85 x151))) (and (or x112 (not (= x85 x95))) (or (not (= x85 x17)) x123))) (or x109 (not (= x37 x85)))) (or x143 (not (= x156 x85)))) (and (and (or x80 x150) (and (or x48 x47) (and (or x74 x112) (or x42 x42)))) (or x90 x96)))) (and (or (not (= x9 x85)) x25) (and (and (or (not (= x82 x85)) x31) (and (or x49 (not (= x23 x85))) (or x80 (not (= x12 x85))))) (or (not (= x85 x19)) x44)))) (and (and (or (not (= x101 x85)) x86) (and (or x66 (not (= x85 x155))) (and (or (not (= x132 x85)) x96) (or (not (= x34 x85)) x117)))) (or (not (= x85 x128)) x153))) (and (and (and (and (and (and (or x49 (not (= x23 x64))) (or x80 (not (= x64 x12)))) (or x31 (not (= x64 x82)))) (or (not (= x19 x64)) x44)) (or x25 (not (= x9 x64)))) (and (and (or (not (= x64 x55)) x127) (and (and (or (not (= x53 x64)) x11) (and (or x48 (not (= x64 x103))) (or (not (= x64 x38)) x114))) (or x29 (not (= x89 x64))))) (and (and (or x143 x117) (and (and (or x146 x114) (and (or x74 x112) (or x123 x123))) (or x49 x109))) (and (or x90 (not (= x64 x145))) (and (or x150 (not (= x91 x64))) (and (and (or (not (= x64 x133)) x42) (or (not (= x64 x121)) x74)) (or (not (= x20 x64)) x47))))))) (and (and (and (or (not (= x64 x155)) x66) (and (or x96 (not (= x132 x64))) (or x117 (not (= x34 x64))))) (or x86 (not (= x64 x101)))) (or (not (= x64 x128)) x153))))) (and (and (and (and (and (or x31 x29) (and (or x80 x150) (or x109 x49))) (or x44 x44)) (or x86 x25)) (and (and (and (and (and (and (or (not (= x121 x100)) x74) (or (not (= x100 x133)) x42)) (or x47 (not (= x20 x100)))) (or x150 (not (= x91 x100)))) (or (not (= x100 x145)) x90)) (and (and (and (and (or x123 (not (= x17 x100))) (or (not (= x95 x100)) x112)) (or x146 (not (= x100 x151)))) (or (not (= x100 x37)) x109)) (or (not (= x100 x156)) x143))) (and (and (or x29 (not (= x89 x100))) (and (and (or x114 (not (= x38 x100))) (or (not (= x100 x103)) x48)) (or x11 (not (= x53 x100))))) (or (not (= x100 x55)) x127)))) (and (and (or (not (= x100 x101)) x86) (and (or x66 (not (= x155 x100))) (and (or (not (= x132 x100)) x96) (or (not (= x34 x100)) x117)))) (or (not (= x100 x128)) x153))))))))
(assert (let ((x20 (x139 x18 x85)) (x38 (x139 x28 x64)) (x103 (x139 x85 x85)) (x121 (x139 x85 x64)) (x155 (x139 x64 x28)) (x19 (x139 x64 x100)) (x12 (x139 x85 x18)) (x133 (x139 x100 x64)) (x117 (x139 x18 x100)) (x9 (x139 x100 x28)) (x101 (x139 x18 x28)) (x23 (x139 x28 x85)) (x82 (x139 x100 x18)) (x91 (x139 x18 x18)) (x49 (x139 x64 x18)) (x128 (x139 x28 x28)) (x145 (x139 x28 x100)) (x55 (x139 x85 x28)) (x123 (x139 x64 x64)) (x132 (x139 x100 x100)) (x34 (x139 x85 x100)) (x114 (x139 x64 x85)) (x74 (x139 x18 x64)) (x53 (x139 x100 x85)) (x89 (x139 x28 x18))) (and (and (and (and (and (and (not (= x91 x101)) (and (not (= x117 x91)) (and (not (= x20 x101)) (and (not (= x117 x20)) (and (and (and (not (= x74 x117)) (and (not (= x74 x91)) (not (= x74 x20)))) (not (= x101 x74))) (not (= x20 x91))))))) (not (= x101 x117))) (and (and (not (= x55 x34)) (and (not (= x55 x12)) (and (not (= x12 x34)) (and (not (= x103 x55)) (and (not (= x103 x34)) (and (and (and (not (= x34 x121)) (and (not (= x12 x121)) (not (= x121 x103)))) (not (= x121 x55))) (not (= x12 x103)))))))) (and (and (and (and (not (= x155 x114)) (and (and (and (not (= x123 x155)) (and (and (not (= x49 x123)) (not (= x123 x114))) (not (= x19 x123)))) (not (= x49 x114))) (not (= x19 x114)))) (not (= x49 x19))) (not (= x155 x49))) (not (= x19 x155))))) (and (and (not (= x82 x9)) (and (not (= x82 x132)) (and (and (and (and (not (= x9 x133)) (and (and (not (= x133 x82)) (not (= x53 x133))) (not (= x132 x133)))) (not (= x53 x82))) (not (= x132 x53))) (not (= x53 x9))))) (not (= x9 x132)))) (and (not (= x145 x128)) (and (and (and (not (= x128 x23)) (and (and (and (not (= x38 x128)) (and (not (= x38 x145)) (and (not (= x89 x38)) (not (= x23 x38))))) (not (= x89 x23))) (not (= x23 x145)))) (not (= x145 x89))) (not (= x128 x89))))) (and (and (and (and (and (and (and (and (and (and (not (= x103 x20)) (and (and (and (not (= x103 x114)) (not (= x20 x114))) (not (= x53 x114))) (not (= x114 x23)))) (not (= x103 x53))) (not (= x103 x23))) (not (= x53 x20))) (not (= x20 x23))) (not (= x53 x23))) (and (and (and (not (= x74 x133)) (and (and (not (= x121 x133)) (and (not (= x121 x74)) (and (not (= x123 x38)) (and (not (= x133 x123)) (and (not (= x123 x74)) (not (= x123 x121))))))) (not (= x121 x38)))) (not (= x74 x38))) (not (= x38 x133)))) (and (and (and (not (= x91 x82)) (and (not (= x89 x12)) (and (not (= x12 x82)) (and (and (and (and (not (= x91 x49)) (not (= x49 x12))) (not (= x82 x49))) (not (= x89 x49))) (not (= x12 x91)))))) (not (= x91 x89))) (not (= x89 x82)))) (and (and (not (= x145 x117)) (and (not (= x117 x132)) (and (and (and (and (not (= x145 x19)) (and (and (not (= x117 x19)) (not (= x34 x19))) (not (= x19 x132)))) (not (= x34 x117))) (not (= x34 x132))) (not (= x34 x145))))) (not (= x132 x145)))) (and (not (= x9 x128)) (and (not (= x128 x101)) (and (and (and (not (= x55 x9)) (and (not (= x101 x55)) (and (and (not (= x9 x155)) (and (not (= x55 x155)) (not (= x101 x155)))) (not (= x155 x128))))) (not (= x128 x55))) (not (= x101 x9)))))))))
(assert (let ((x55 (x139 x85 x28)) (x95 (x139 x28 x85)) (x68 (x139 x28 x100)) (x130 (x139 x28 x28)) (x38 (x139 x64 x100)) (x114 (x139 x64 x28)) (x127 (x139 x18 x18)) (x53 (x139 x18 x64)) (x74 (x139 x64 x85)) (x145 (x139 x85 x18)) (x121 (x139 x64 x64)) (x155 (x139 x85 x100)) (x133 (x139 x64 x18)) (x23 (x139 x100 x64)) (x54 (x139 x100 x100)) (x14 (x139 x100 x28)) (x153 (x139 x100 x18)) (x154 (x139 x28 x18)) (x44 (x139 x18 x28)) (x20 (x139 x85 x64)) (x49 (x139 x28 x64)) (x17 (x139 x100 x85)) (x132 (x139 x85 x85)) (x31 (x139 x18 x100)) (x128 (x139 x18 x85))) (let ((x156 (= x100 x132)) (x158 (= x28 x31)) (x94 (= x100 x127)) (x42 (= x28 x74)) (x19 (= x74 x64)) (x7 (= x49 x28)) (x33 (= x55 x18)) (x96 (= x64 x145)) (x118 (= x53 x18)) (x102 (= x17 x64)) (x13 (= x55 x100)) (x51 (= x85 x130)) (x157 (= x64 x14)) (x36 (= x44 x18)) (x131 (= x23 x85)) (x76 (= x100 x145)) (x60 (= x100 x31)) (x129 (= x100 x154)) (x77 (= x28 x54)) (x21 (= x18 x14)) (x111 (= x85 x54)) (x86 (= x85 x127)) (x27 (= x28 x155)) (x88 (= x100 x44)) (x66 (= x145 x85)) (x141 (= x31 x85)) (x87 (= x85 x68)) (x3 (= x85 x55)) (x110 (= x155 x18)) (x9 (= x132 x85)) (x138 (= x38 x64)) (x61 (= x44 x64)) (x146 (= x18 x132)) (x144 (= x155 x100)) (x40 (= x17 x100)) (x152 (= x114 x100)) (x98 (= x128 x28)) (x126 (= x64 x153)) (x150 (= x133 x64)) (x99 (= x85 x154)) (x140 (= x31 x64)) (x108 (= x14 x85)) (x123 (= x64 x121)) (x124 (= x95 x85)) (x78 (= x14 x28)) (x69 (= x114 x85)) (x71 (= x64 x130)) (x47 (= x64 x53)) (x1 (= x100 x128)) (x104 (= x95 x28)) (x24 (= x145 x28)) (x52 (= x85 x44)) (x79 (= x18 x133)) (x58 (= x127 x28)) (x119 (= x18 x153)) (x159 (= x54 x18)) (x59 (= x100 x54)) (x89 (= x20 x64)) (x35 (= x100 x38)) (x148 (= x31 x18)) (x34 (= x132 x64)) (x75 (= x154 x64)) (x134 (= x145 x18)) (x70 (= x49 x85)) (x80 (= x128 x64)) (x151 (= x74 x18)) (x5 (= x64 x54)) (x67 (= x17 x18)) (x12 (= x121 x18)) (x73 (= x55 x28)) (x50 (= x133 x28)) (x65 (= x100 x130)) (x91 (= x100 x121)) (x32 (= x38 x18)) (x43 (= x64 x49)) (x142 (= x23 x100)) (x30 (= x18 x95)) (x26 (= x68 x64)) (x101 (= x85 x74)) (x120 (= x64 x155)) (x147 (= x17 x85)) (x149 (= x100 x153)) (x112 (= x18 x20)) (x115 (= x18 x23)) (x4 (= x95 x100)) (x93 (= x153 x28)) (x82 (= x28 x121)) (x41 (= x64 x95)) (x63 (= x28 x23)) (x92 (= x68 x18)) (x57 (= x28 x44)) (x84 (= x100 x49)) (x29 (= x85 x128)) (x6 (= x18 x114)) (x11 (= x53 x85)) (x90 (= x127 x64)) (x2 (= x114 x28)) (x25 (= x133 x85)) (x116 (= x53 x100)) (x103 (= x85 x121)) (x113 (= x55 x64)) (x15 (= x133 x100)) (x143 (= x28 x20)) (x135 (= x64 x114)) (x137 (= x127 x18)) (x107 (= x28 x17)) (x105 (= x85 x153)) (x16 (= x38 x85)) (x97 (= x68 x100)) (x81 (= x28 x130)) (x125 (= x28 x68)) (x46 (= x130 x18)) (x37 (= x100 x20)) (x83 (= x18 x49)) (x122 (= x18 x154)) (x62 (= x100 x14)) (x117 (= x85 x20)) (x106 (= x128 x18)) (x48 (= x132 x28)) (x39 (= x28 x154)) (x10 (= x53 x28)) (x22 (= x64 x23)) (x45 (= x38 x28)) (x72 (= x155 x85)) (x109 (= x74 x100))) (and (and (and (and (and (and (and (or (or (or x116 (or x37 x91)) x142) x84) (or (or (or x15 (or x109 x91)) x35) x152)) (and (and (or (or x32 (or (or x151 x12) x79)) x6) (or (or x115 (or (or x12 x112) x118)) x83)) (and (and (or x69 (or x16 (or (or x103 x101) x25))) (or (or (or (or x103 x117) x11) x131) x70)) (and (or (or x22 (or x47 (or x89 x123))) x43) (or (or x138 (or (or x19 x123) x150)) x135))))) (and (or (or (or x50 (or x82 x42)) x45) x2) (or (or x63 (or (or x143 x82) x10)) x7))) (and (and (or (or x27 (or x24 (or x48 x143))) x73) (or (or (or (or x42 x48) x98) x107) x104)) (and (and (and (or (or x67 (or (or x146 x151) x106)) x30) (or (or (or (or x146 x112) x134) x110) x33)) (and (and (or (or (or x80 (or x19 x34)) x102) x41) (or (or (or x96 (or x89 x34)) x120) x113)) (and (or x3 (or x72 (or x66 (or x9 x117)))) (or x124 (or (or x29 (or x9 x101)) x147))))) (and (or x13 (or x144 (or (or x37 x156) x76))) (or x4 (or (or (or x156 x109) x1) x40)))))) (and (and (or (or (or x58 (or x24 x50)) x93) x39) (or (or x158 (or (or x98 x10) x58)) x57)) (and (and (and (and (or (or x105 (or (or x25 x66) x86)) x99) (or (or (or x86 (or x11 x29)) x141) x52)) (and (or x75 (or (or (or x150 x96) x90) x126)) (or (or (or (or x80 x47) x90) x140) x61))) (and (or x36 (or (or (or x106 x118) x137) x148)) (or (or x119 (or (or x79 x134) x137)) x122))) (and (or (or (or (or x15 x76) x94) x149) x129) (or (or (or x94 (or x116 x1)) x60) x88))))) (and (and (or (or (or x93 (or x107 x63)) x77) x78) (or x125 (or x77 (or (or x45 x27) x158)))) (and (and (and (or x21 (or x159 (or x119 (or x67 x115)))) (or (or (or x148 (or x32 x110)) x159) x92)) (and (and (or x108 (or x111 (or (or x131 x147) x105))) (or (or x111 (or x141 (or x72 x16))) x87)) (and (or x157 (or x5 (or x126 (or x22 x102)))) (or x26 (or (or x140 (or x138 x120)) x5))))) (and (or (or (or x149 (or x40 x142)) x59) x62) (or x97 (or x59 (or x60 (or x35 x144)))))))) (and (and (or x81 (or (or (or x73 x2) x57) x78)) (or x81 (or x125 (or (or x7 x104) x39)))) (and (and (or (or (or (or x84 x4) x129) x97) x65) (or x65 (or x62 (or (or x152 x13) x88)))) (and (and (or x46 (or (or (or x33 x6) x36) x21)) (or (or (or (or x30 x83) x122) x92) x46)) (and (and (or x71 (or (or (or x135 x113) x61) x157)) (or x71 (or (or x75 (or x41 x43)) x26))) (and (or (or (or (or x3 x69) x52) x108) x51) (or (or x87 (or x99 (or x70 x124))) x51))))))))))
(assert (or (and (not (= x28 (x139 (x139 x28 x28) x28))) (and (and (and (not (= (x139 (x139 x28 x64) x28) x64)) (not (= x85 (x139 (x139 x28 x85) x28)))) (not (= x18 (x139 (x139 x28 x18) x28)))) (not (= x100 (x139 (x139 x28 x100) x28))))) (or (and (and (not (= (x139 (x139 x100 x100) x100) x100)) (and (and (not (= (x139 (x139 x100 x64) x100) x64)) (not (= x85 (x139 (x139 x100 x85) x100)))) (not (= x18 (x139 (x139 x100 x18) x100))))) (not (= (x139 (x139 x100 x28) x100) x28))) (or (or (and (and (not (= x100 (x139 (x139 x85 x100) x85))) (and (not (= (x139 (x139 x85 x18) x85) x18)) (and (not (= x85 (x139 (x139 x85 x85) x85))) (not (= (x139 (x139 x85 x64) x85) x64))))) (not (= x28 (x139 (x139 x85 x28) x85)))) (and (not (= x28 (x139 (x139 x64 x28) x64))) (and (and (and (not (= (x139 (x139 x64 x64) x64) x64)) (not (= x85 (x139 (x139 x64 x85) x64)))) (not (= x18 (x139 (x139 x64 x18) x64)))) (not (= (x139 (x139 x64 x100) x64) x100))))) (and (not (= x28 (x139 (x139 x18 x28) x18))) (and (not (= x100 (x139 (x139 x18 x100) x18))) (and (not (= (x139 (x139 x18 x18) x18) x18)) (and (not (= (x139 (x139 x18 x64) x18) x64)) (not (= x85 (x139 (x139 x18 x85) x18)))))))))))
(assert (not (and (= x64 (x139 x28 x28)) (and (= (x139 x28 x100) x85) (and (= (x139 x28 x18) x18) (and (= (x139 x28 x85) x28) (and (and (and (= (x139 x100 x100) x18) (and (= (x139 x100 x18) x64) (and (and (= x85 (x139 x100 x64)) (and (= (x139 x18 x28) x85) (and (and (and (= (x139 x18 x85) x64) (and (= x18 (x139 x18 x64)) (and (and (= (x139 x85 x100) x64) (and (= (x139 x85 x18) x85) (and (and (= (x139 x85 x64) x28) (and (and (and (and (= x64 (x139 x64 x64)) (= x85 (x139 x64 x85))) (= (x139 x64 x18) x28)) (= (x139 x64 x100) x100)) (= (x139 x64 x28) x18))) (= (x139 x85 x85) x18)))) (= (x139 x85 x28) x100)))) (= x100 (x139 x18 x18))) (= (x139 x18 x100) x28)))) (= x100 (x139 x100 x85))))) (= x28 (x139 x100 x28))) (= x100 (x139 x28 x64)))))))))
(assert (let ((x80 (x139 x85 x85)) (x29 (x139 x100 x85)) (x106 (x139 x100 x18)) (x112 (x139 x64 x85)) (x17 (x139 x64 x64)) (x24 (x139 x28 x100)) (x37 (x139 x18 x64)) (x11 (x139 x85 x100)) (x118 (x139 x18 x100)) (x42 (x139 x28 x64)) (x79 (x139 x18 x28)) (x127 (x139 x85 x28)) (x134 (x139 x28 x18)) (x153 (x139 x18 x18)) (x131 (x139 x28 x28)) (x50 (x139 x100 x28)) (x146 (x139 x64 x18)) (x96 (x139 x85 x18)) (x10 (x139 x100 x100)) (x90 (x139 x18 x85)) (x109 (x139 x64 x100)) (x151 (x139 x85 x64)) (x31 (x139 x28 x85)) (x143 (x139 x64 x28)) (x156 (x139 x100 x64))) (let ((x38 (not (= x64 x37))) (x91 (not (= x64 x11))) (x7 (not (= x42 x28))) (x86 (not (= x85 x96))) (x48 (not (= x151 x85))) (x60 (not (= x18 x134))) (x121 (not (= x151 x64))) (x101 (not (= x64 x24))) (x82 (not (= x106 x64))) (x61 (not (= x109 x100))) (x150 (not (= x80 x85))) (x93 (not (= x18 x131))) (x52 (not (= x134 x100))) (x22 (not (= x85 x143))) (x155 (not (= x134 x64))) (x94 (not (= x118 x85))) (x137 (not (= x85 x156))) (x55 (not (= x79 x64))) (x68 (not (= x96 x18))) (x95 (not (= x85 x17))) (x149 (not (= x18 x143))) (x148 (not (= x18 x106))) (x41 (not (= x146 x100))) (x77 (not (= x80 x100))) (x57 (not (= x24 x28))) (x12 (not (= x29 x64))) (x98 (not (= x85 x10))) (x72 (not (= x37 x18))) (x115 (not (= x153 x18))) (x70 (not (= x106 x100))) (x122 (not (= x17 x28))) (x20 (not (= x96 x64))) (x123 (not (= x17 x64))) (x34 (not (= x64 x42))) (x32 (not (= x29 x18))) (x144 (not (= x18 x127))) (x59 (not (= x18 x79))) (x76 (not (= x85 x106))) (x105 (not (= x17 x18))) (x33 (not (= x80 x28))) (x54 (not (= x151 x18))) (x45 (not (= x17 x100))) (x49 (not (= x64 x109))) (x119 (not (= x109 x18))) (x69 (not (= x100 x31))) (x129 (not (= x156 x28))) (x53 (not (= x153 x64))) (x3 (not (= x100 x127))) (x102 (not (= x31 x85))) (x147 (not (= x131 x85))) (x14 (not (= x18 x112))) (x83 (not (= x50 x100))) (x104 (not (= x143 x28))) (x26 (not (= x96 x100))) (x128 (not (= x64 x131))) (x107 (not (= x50 x18))) (x21 (not (= x146 x28))) (x142 (not (= x18 x10))) (x1 (not (= x29 x85))) (x111 (not (= x18 x90))) (x58 (not (= x85 x42))) (x15 (not (= x85 x11))) (x75 (not (= x100 x90))) (x92 (not (= x28 x151))) (x40 (not (= x18 x42))) (x66 (not (= x90 x85))) (x132 (not (= x64 x31))) (x97 (not (= x109 x28))) (x19 (not (= x64 x10))) (x16 (not (= x18 x80))) (x125 (not (= x28 x127))) (x135 (not (= x100 x153))) (x84 (not (= x28 x96))) (x46 (not (= x90 x28))) (x152 (not (= x29 x28))) (x81 (not (= x28 x131))) (x6 (not (= x28 x112))) (x30 (not (= x100 x131))) (x114 (not (= x146 x64))) (x51 (not (= x100 x24))) (x113 (not (= x156 x100))) (x124 (not (= x100 x118))) (x39 (not (= x31 x28))) (x63 (not (= x24 x18))) (x36 (not (= x28 x37))) (x87 (not (= x42 x100))) (x120 (not (= x85 x79))) (x71 (not (= x11 x100))) (x73 (not (= x79 x28))) (x154 (not (= x85 x153))) (x158 (not (= x100 x112))) (x126 (not (= x85 x127))) (x117 (not (= x64 x143))) (x141 (not (= x146 x18))) (x35 (not (= x18 x31))) (x25 (not (= x146 x85))) (x116 (not (= x109 x85))) (x99 (not (= x10 x100))) (x2 (not (= x28 x134))) (x89 (not (= x118 x64))) (x140 (not (= x24 x85))) (x159 (not (= x18 x118))) (x44 (not (= x37 x85))) (x67 (not (= x18 x156))) (x88 (not (= x106 x28))) (x130 (not (= x143 x100))) (x23 (not (= x64 x156))) (x9 (not (= x64 x50))) (x157 (not (= x100 x29))) (x4 (not (= x28 x153))) (x138 (not (= x85 x134))) (x13 (not (= x11 x28))) (x145 (not (= x64 x127))) (x47 (not (= x85 x112))) (x110 (not (= x11 x18))) (x74 (not (= x64 x112))) (x108 (not (= x79 x100))) (x5 (not (= x85 x50))) (x103 (not (= x64 x90))) (x133 (not (= x64 x80))) (x65 (not (= x28 x10))) (x78 (not (= x50 x28))) (x43 (not (= x100 x37))) (x62 (not (= x118 x28))) (x27 (not (= x100 x151)))) (or (and (and (and (or x57 x78) (and (or x2 x73) (and (or x7 x104) (or x125 x39)))) (or x81 x81)) (and (and (and (and (or x62 x88) (and (and (or x36 x21) (or x46 x84)) (or x4 x4))) (or x2 x73)) (and (and (or x7 x104) (and (and (and (or x122 x122) (or x6 x92)) (or x36 x21)) (or x129 x97))) (and (or x125 x39) (and (or x13 x152) (and (and (or x92 x6) (or x33 x33)) (or x84 x46)))))) (and (or x57 x78) (and (or x65 x65) (and (and (or x13 x152) (or x97 x129)) (or x88 x62)))))) (or (or (or (and (and (and (or x9 x101) (and (and (or x82 x89) (and (or x12 x91) (or x49 x23))) (or x19 x19))) (and (and (and (or x117 x34) (and (and (and (or x123 x123) (or x121 x74)) (or x38 x114)) (or x23 x49))) (and (and (and (or x103 x20) (and (or x133 x133) (or x74 x121))) (or x91 x12)) (or x132 x145))) (and (and (or x82 x89) (and (and (or x103 x20) (or x38 x114)) (or x53 x53))) (or x55 x155)))) (and (or x128 x128) (and (and (or x55 x155) (and (or x34 x117) (or x132 x145))) (or x9 x101)))) (and (and (and (and (and (and (or x137 x116) (and (and (or x95 x95) (or x48 x47)) (or x25 x44))) (or x22 x58)) (and (and (and (and (or x150 x150) (or x47 x48)) (or x66 x86)) (or x15 x1)) (or x102 x126))) (and (or x138 x120) (and (and (or x154 x154) (and (or x44 x25) (or x66 x86))) (or x76 x94)))) (and (or x5 x140) (and (and (or x76 x94) (and (or x15 x1) (or x137 x116))) (or x98 x98)))) (and (or x147 x147) (and (and (or x138 x120) (and (or x102 x126) (or x58 x22))) (or x5 x140))))) (and (and (and (or x63 x107) (and (or x59 x60) (and (or x149 x40) (or x35 x144)))) (or x93 x93)) (and (and (and (or x59 x60) (and (and (and (or x68 x111) (or x72 x141)) (or x115 x115)) (or x159 x148))) (and (and (or x40 x149) (and (and (or x141 x72) (and (or x54 x14) (or x105 x105))) (or x119 x67))) (and (or x144 x35) (and (or x110 x32) (and (and (or x16 x16) (or x54 x14)) (or x68 x111)))))) (and (or x63 x107) (and (and (and (or x119 x67) (or x110 x32)) (or x148 x159)) (or x142 x142)))))) (and (and (and (or x51 x83) (and (or x99 x99) (and (or x124 x70) (and (or x71 x157) (or x61 x113))))) (and (and (and (and (or x157 x71) (and (and (or x27 x158) (or x77 x77)) (or x26 x75))) (or x3 x69)) (and (and (or x113 x61) (and (and (or x158 x27) (or x45 x45)) (or x43 x41))) (or x87 x130))) (and (or x52 x108) (and (or x70 x124) (and (or x135 x135) (and (or x41 x43) (or x75 x26))))))) (and (and (and (or x108 x52) (and (or x3 x69) (or x130 x87))) (or x83 x51)) (or x30 x30))))))))
(assert (let ((x153 (x139 x18 x18)) (x134 (x139 x28 x18)) (x37 (x139 x18 x64)) (x151 (x139 x85 x64)) (x90 (x139 x18 x85)) (x80 (x139 x85 x85)) (x143 (x139 x64 x28)) (x112 (x139 x64 x85)) (x50 (x139 x100 x28)) (x11 (x139 x85 x100)) (x79 (x139 x18 x28)) (x156 (x139 x100 x64)) (x29 (x139 x100 x85)) (x96 (x139 x85 x18)) (x146 (x139 x64 x18)) (x131 (x139 x28 x28)) (x118 (x139 x18 x100)) (x17 (x139 x64 x64)) (x31 (x139 x28 x85)) (x109 (x139 x64 x100)) (x127 (x139 x85 x28)) (x24 (x139 x28 x100)) (x106 (x139 x100 x18)) (x10 (x139 x100 x100)) (x42 (x139 x28 x64))) (let ((x73 (= x79 x28)) (x7 (= x28 x42)) (x95 (= x17 x85)) (x110 (= x18 x11)) (x13 (= x11 x28)) (x126 (= x127 x85)) (x21 (= x28 x146)) (x113 (= x100 x156)) (x46 (= x28 x90)) (x122 (= x17 x28)) (x108 (= x79 x100)) (x120 (= x79 x85)) (x43 (= x37 x100)) (x38 (= x37 x64)) (x144 (= x18 x127)) (x36 (= x37 x28)) (x47 (= x112 x85)) (x124 (= x118 x100)) (x19 (= x10 x64)) (x23 (= x156 x64)) (x48 (= x85 x151)) (x87 (= x42 x100)) (x26 (= x96 x100)) (x4 (= x28 x153)) (x71 (= x100 x11)) (x61 (= x100 x109)) (x14 (= x112 x18)) (x150 (= x85 x80)) (x154 (= x85 x153)) (x104 (= x28 x143)) (x111 (= x18 x90)) (x97 (= x28 x109)) (x60 (= x134 x18)) (x39 (= x28 x31)) (x20 (= x64 x96)) (x25 (= x146 x85)) (x99 (= x100 x10)) (x40 (= x18 x42)) (x76 (= x85 x106)) (x54 (= x18 x151)) (x115 (= x18 x153)) (x114 (= x146 x64)) (x138 (= x85 x134)) (x159 (= x118 x18)) (x107 (= x50 x18)) (x12 (= x29 x64)) (x65 (= x28 x10)) (x33 (= x28 x80)) (x74 (= x112 x64)) (x83 (= x50 x100)) (x1 (= x29 x85)) (x59 (= x18 x79)) (x44 (= x37 x85)) (x137 (= x85 x156)) (x81 (= x28 x131)) (x15 (= x85 x11)) (x22 (= x85 x143)) (x53 (= x64 x153)) (x5 (= x50 x85)) (x130 (= x100 x143)) (x58 (= x42 x85)) (x125 (= x28 x127)) (x88 (= x106 x28)) (x94 (= x85 x118)) (x142 (= x10 x18)) (x119 (= x109 x18)) (x62 (= x118 x28)) (x93 (= x18 x131)) (x51 (= x24 x100)) (x9 (= x50 x64)) (x49 (= x64 x109)) (x152 (= x28 x29)) (x82 (= x64 x106)) (x140 (= x24 x85)) (x35 (= x31 x18)) (x158 (= x112 x100)) (x68 (= x96 x18)) (x16 (= x18 x80)) (x63 (= x18 x24)) (x148 (= x106 x18)) (x52 (= x100 x134)) (x45 (= x17 x100)) (x103 (= x90 x64)) (x32 (= x18 x29)) (x75 (= x100 x90)) (x149 (= x143 x18)) (x84 (= x96 x28)) (x69 (= x31 x100)) (x89 (= x64 x118)) (x145 (= x64 x127)) (x123 (= x64 x17)) (x86 (= x96 x85)) (x133 (= x64 x80)) (x3 (= x127 x100)) (x2 (= x28 x134)) (x102 (= x31 x85)) (x101 (= x24 x64)) (x98 (= x85 x10)) (x105 (= x17 x18)) (x41 (= x100 x146)) (x27 (= x151 x100)) (x34 (= x64 x42)) (x30 (= x131 x100)) (x6 (= x28 x112)) (x121 (= x64 x151)) (x116 (= x85 x109)) (x66 (= x85 x90)) (x141 (= x18 x146)) (x57 (= x28 x24)) (x70 (= x100 x106)) (x55 (= x79 x64)) (x135 (= x153 x100)) (x67 (= x156 x18)) (x128 (= x131 x64)) (x129 (= x28 x156)) (x91 (= x11 x64)) (x77 (= x100 x80)) (x155 (= x134 x64)) (x72 (= x37 x18)) (x92 (= x28 x151)) (x147 (= x131 x85)) (x157 (= x29 x100)) (x78 (= x50 x28)) (x117 (= x64 x143)) (x132 (= x64 x31))) (and (or (or (or (and (not x57) x78) (or (or (or (and (not x97) x129) (and x152 (not x13))) (and x88 (not x62))) (and (not x65) x65))) (or (or (and x73 (not x2)) (or (or (or (and (not x84) x46) (and (not x21) x36)) (and (not x4) x4)) (and (not x88) x62))) (or (or (or (or (or (and x6 (not x92)) (and x122 (not x122))) (and (not x36) x21)) (and (not x129) x97)) (and x104 (not x7))) (or (and (not x39) x125) (or (or (and x84 (not x46)) (or (and x33 (not x33)) (and x92 (not x6)))) (and (not x152) x13)))))) (or (and x81 (not x81)) (or (or (and x2 (not x73)) (or (and x7 (not x104)) (and (not x125) x39))) (and x57 (not x78))))) (and (and (or (or (or (or (or (and (not x144) x35) (and x40 (not x149))) (and (not x59) x60)) (and x63 (not x107))) (and x93 (not x93))) (or (or (or (and (not x60) x59) (or (and (not x148) x159) (or (and x115 (not x115)) (or (and x111 (not x68)) (and x72 (not x141)))))) (or (or (or (or (or (and x54 (not x14)) (and (not x16) x16)) (and x68 (not x111))) (and (not x32) x110)) (and x144 (not x35))) (or (and x149 (not x40)) (or (or (or (and x105 (not x105)) (and (not x54) x14)) (and (not x72) x141)) (and x119 (not x67)))))) (or (and (not x63) x107) (or (or (or (and (not x110) x32) (and x67 (not x119))) (and x148 (not x159))) (and x142 (not x142)))))) (and (or (or (or (and (not x9) x101) (or (or (and x34 (not x117)) (and x132 (not x145))) (and x155 (not x55)))) (and (not x128) x128)) (or (or (or (or (and x89 (not x82)) (or (and (not x53) x53) (or (and (not x114) x38) (and x103 (not x20))))) (and x55 (not x155))) (or (or (or (or (and x114 (not x38)) (or (and x123 (not x123)) (and x74 (not x121)))) (and x49 (not x23))) (and (not x34) x117)) (or (and x145 (not x132)) (or (or (or (and (not x74) x121) (and (not x133) x133)) (and (not x103) x20)) (and (not x12) x91))))) (or (or (or (or (and (not x91) x12) (and (not x49) x23)) (and (not x89) x82)) (and x19 (not x19))) (and x9 (not x101))))) (or (or (or (and x140 (not x5)) (or (and x138 (not x120)) (or (and (not x126) x102) (and (not x22) x58)))) (and x147 (not x147))) (or (or (or (or (and (not x58) x22) (or (and x116 (not x137)) (or (and (not x44) x25) (or (and (not x95) x95) (and x47 (not x48)))))) (or (or (or (and x86 (not x66)) (or (and (not x150) x150) (and (not x47) x48))) (and x15 (not x1))) (and (not x102) x126))) (or (and x120 (not x138)) (or (and x94 (not x76)) (or (and x154 (not x154)) (or (and (not x86) x66) (and (not x25) x44)))))) (or (or (or (and (not x94) x76) (or (and x137 (not x116)) (and x1 (not x15)))) (and x98 (not x98))) (and (not x140) x5)))))) (or (or (or (or (or (or (and x113 (not x61)) (and (not x71) x157)) (and (not x124) x70)) (and (not x99) x99)) (and x83 (not x51))) (or (or (or (and (not x70) x124) (or (and x135 (not x135)) (or (and (not x41) x43) (and (not x26) x75)))) (and x108 (not x52))) (or (or (or (and (not x157) x71) (or (or (and (not x77) x77) (and (not x158) x27)) (and x26 (not x75)))) (and x3 (not x69))) (or (or (or (or (and (not x45) x45) (and (not x27) x158)) (and (not x43) x41)) (and x61 (not x113))) (and (not x87) x130))))) (or (and (not x30) x30) (or (or (or (and (not x130) x87) (and x69 (not x3))) (and x52 (not x108))) (and x51 (not x83))))))))))
(assert (or (or (and (not (= (x139 x28 (x139 x100 x28)) x100)) (and (and (not (= (x139 x18 (x139 x100 x18)) x100)) (and (not (= x100 (x139 x85 (x139 x100 x85)))) (not (= x100 (x139 x64 (x139 x100 x64)))))) (not (= (x139 x100 (x139 x100 x100)) x100)))) (or (and (not (= x18 (x139 x28 (x139 x18 x28)))) (and (not (= x18 (x139 x100 (x139 x18 x100)))) (and (and (not (= (x139 x64 (x139 x18 x64)) x18)) (not (= (x139 x85 (x139 x18 x85)) x18))) (not (= (x139 x18 (x139 x18 x18)) x18))))) (or (and (not (= (x139 x28 (x139 x64 x28)) x64)) (and (not (= x64 (x139 x100 (x139 x64 x100)))) (and (not (= x64 (x139 x18 (x139 x64 x18)))) (and (not (= x64 (x139 x64 (x139 x64 x64)))) (not (= x64 (x139 x85 (x139 x64 x85)))))))) (and (not (= (x139 x28 (x139 x85 x28)) x85)) (and (and (and (not (= x85 (x139 x64 (x139 x85 x64)))) (not (= (x139 x85 (x139 x85 x85)) x85))) (not (= x85 (x139 x18 (x139 x85 x18))))) (not (= (x139 x100 (x139 x85 x100)) x85))))))) (and (and (not (= (x139 x100 (x139 x28 x100)) x28)) (and (and (not (= x28 (x139 x85 (x139 x28 x85)))) (not (= (x139 x64 (x139 x28 x64)) x28))) (not (= (x139 x18 (x139 x28 x18)) x28)))) (not (= (x139 x28 (x139 x28 x28)) x28)))))
(assert (let ((x133 (x139 x100 x100)) (x38 (x139 x28 x28)) (x74 (x139 x18 x18)) (x121 (x139 x85 x85)) (x123 (x139 x64 x64))) (or (and (not (= x28 x38)) (and (not (= x133 x28)) (and (and (not (= x123 x28)) (not (= x28 x121))) (not (= x28 x74))))) (or (or (and (not (= x18 x38)) (and (and (and (not (= x18 x123)) (not (= x121 x18))) (not (= x18 x74))) (not (= x18 x133)))) (or (and (not (= x38 x85)) (and (and (not (= x74 x85)) (and (not (= x121 x85)) (not (= x85 x123)))) (not (= x133 x85)))) (and (and (and (not (= x64 x74)) (and (not (= x64 x123)) (not (= x121 x64)))) (not (= x133 x64))) (not (= x64 x38))))) (and (not (= x100 x38)) (and (not (= x133 x100)) (and (not (= x100 x74)) (and (not (= x123 x100)) (not (= x100 x121))))))))))
(assert (or (and (and (and (not (= (x139 (x139 x18 x28) x28) x18)) (and (not (= x64 (x139 (x139 x64 x28) x28))) (not (= x85 (x139 (x139 x85 x28) x28))))) (not (= (x139 (x139 x100 x28) x28) x100))) (not (= (x139 (x139 x28 x28) x28) x28))) (or (or (or (and (not (= x28 (x139 (x139 x28 x64) x64))) (and (and (and (not (= x64 (x139 (x139 x64 x64) x64))) (not (= (x139 (x139 x85 x64) x64) x85))) (not (= (x139 (x139 x18 x64) x64) x18))) (not (= (x139 (x139 x100 x64) x64) x100)))) (and (not (= x28 (x139 (x139 x28 x85) x85))) (and (not (= x100 (x139 (x139 x100 x85) x85))) (and (and (not (= (x139 (x139 x64 x85) x85) x64)) (not (= x85 (x139 (x139 x85 x85) x85)))) (not (= x18 (x139 (x139 x18 x85) x85))))))) (and (not (= (x139 (x139 x28 x18) x18) x28)) (and (not (= x100 (x139 (x139 x100 x18) x18))) (and (not (= x18 (x139 (x139 x18 x18) x18))) (and (not (= x64 (x139 (x139 x64 x18) x18))) (not (= x85 (x139 (x139 x85 x18) x18)))))))) (and (and (not (= x100 (x139 (x139 x100 x100) x100))) (and (and (not (= x85 (x139 (x139 x85 x100) x100))) (not (= (x139 (x139 x64 x100) x100) x64))) (not (= x18 (x139 (x139 x18 x100) x100))))) (not (= (x139 (x139 x28 x100) x100) x28))))))
(assert (and (or (= x28 (x139 x28 (x139 x28 x28))) (or (or (= (x139 x18 (x139 x28 x18)) x18) (or (= x85 (x139 x85 (x139 x28 x85))) (= (x139 x64 (x139 x28 x64)) x64))) (= x100 (x139 x100 (x139 x28 x100))))) (and (or (or (= (x139 x100 (x139 x100 x100)) x100) (or (= (x139 x18 (x139 x100 x18)) x18) (or (= x85 (x139 x85 (x139 x100 x85))) (= (x139 x64 (x139 x100 x64)) x64)))) (= x28 (x139 x28 (x139 x100 x28)))) (and (and (or (= (x139 x28 (x139 x85 x28)) x28) (or (= x100 (x139 x100 (x139 x85 x100))) (or (or (= (x139 x85 (x139 x85 x85)) x85) (= x64 (x139 x64 (x139 x85 x64)))) (= (x139 x18 (x139 x85 x18)) x18)))) (or (= x28 (x139 x28 (x139 x64 x28))) (or (= x100 (x139 x100 (x139 x64 x100))) (or (or (= (x139 x64 (x139 x64 x64)) x64) (= (x139 x85 (x139 x64 x85)) x85)) (= x18 (x139 x18 (x139 x64 x18))))))) (or (or (or (or (= x64 (x139 x64 (x139 x18 x64))) (= (x139 x85 (x139 x18 x85)) x85)) (= x18 (x139 x18 (x139 x18 x18)))) (= (x139 x100 (x139 x18 x100)) x100)) (= x28 (x139 x28 (x139 x18 x28))))))))
(assert (and (and (or (not (= x28 (x139 (x139 x28 x100) x100))) (or (not (= (x139 (x139 x100 x100) x100) x100)) (or (or (not (= (x139 (x139 x85 x100) x100) x85)) (not (= (x139 (x139 x64 x100) x100) x64))) (not (= x18 (x139 (x139 x18 x100) x100)))))) (and (or (or (or (or (not (= x85 (x139 (x139 x85 x18) x18))) (not (= x64 (x139 (x139 x64 x18) x18)))) (not (= (x139 (x139 x18 x18) x18) x18))) (not (= (x139 (x139 x100 x18) x18) x100))) (not (= x28 (x139 (x139 x28 x18) x18)))) (and (or (not (= (x139 (x139 x28 x85) x85) x28)) (or (or (not (= x18 (x139 (x139 x18 x85) x85))) (or (not (= (x139 (x139 x64 x85) x85) x64)) (not (= (x139 (x139 x85 x85) x85) x85)))) (not (= (x139 (x139 x100 x85) x85) x100)))) (or (not (= (x139 (x139 x28 x64) x64) x28)) (or (or (not (= x18 (x139 (x139 x18 x64) x64))) (or (not (= x85 (x139 (x139 x85 x64) x64))) (not (= (x139 (x139 x64 x64) x64) x64)))) (not (= (x139 (x139 x100 x64) x64) x100))))))) (or (or (or (not (= x18 (x139 (x139 x18 x28) x28))) (or (not (= (x139 (x139 x85 x28) x28) x85)) (not (= (x139 (x139 x64 x28) x28) x64)))) (not (= (x139 (x139 x100 x28) x28) x100))) (not (= (x139 (x139 x28 x28) x28) x28)))))
(assert (and (and (and (= (x139 x100 x64) x85) (= x64 (x139 x28 x28))) (= x18 (x139 x100 x100))) (= x100 (x139 x28 x64))))
(assert (let ((x82 (x139 x18 x100)) (x89 (x139 x18 x28)) (x55 (x139 x28 x85)) (x34 (x139 x100 x85)) (x49 (x139 x18 x64)) (x132 (x139 x100 x100)) (x121 (x139 x64 x85)) (x91 (x139 x18 x18)) (x123 (x139 x64 x64)) (x38 (x139 x64 x28)) (x74 (x139 x64 x18)) (x20 (x139 x85 x18)) (x9 (x139 x28 x100)) (x128 (x139 x28 x28)) (x155 (x139 x28 x64)) (x23 (x139 x85 x28)) (x114 (x139 x85 x64)) (x145 (x139 x100 x28)) (x101 (x139 x28 x18)) (x19 (x139 x100 x64)) (x53 (x139 x85 x100)) (x133 (x139 x64 x100)) (x12 (x139 x18 x85)) (x103 (x139 x85 x85)) (x117 (x139 x100 x18))) (or (and (not (= x28 (x139 x128 x128))) (and (not (= (x139 x9 x9) x100)) (and (and (not (= (x139 x55 x55) x85)) (not (= x64 (x139 x155 x155)))) (not (= x18 (x139 x101 x101)))))) (or (and (and (not (= (x139 x132 x132) x100)) (and (not (= (x139 x117 x117) x18)) (and (not (= x64 (x139 x19 x19))) (not (= x85 (x139 x34 x34)))))) (not (= x28 (x139 x145 x145)))) (or (or (and (and (not (= x100 (x139 x133 x133))) (and (not (= x18 (x139 x74 x74))) (and (not (= x64 (x139 x123 x123))) (not (= (x139 x121 x121) x85))))) (not (= (x139 x38 x38) x28))) (and (not (= (x139 x23 x23) x28)) (and (not (= (x139 x53 x53) x100)) (and (and (not (= (x139 x114 x114) x64)) (not (= x85 (x139 x103 x103)))) (not (= (x139 x20 x20) x18)))))) (and (and (and (and (not (= x85 (x139 x12 x12))) (not (= x64 (x139 x49 x49)))) (not (= (x139 x91 x91) x18))) (not (= (x139 x82 x82) x100))) (not (= x28 (x139 x89 x89)))))))))
(assert (not (and (= x64 (x139 x28 x28)) (and (= x85 (x139 x28 x100)) (and (and (= (x139 x28 x85) x18) (and (= x100 (x139 x28 x64)) (and (and (and (and (and (= x85 (x139 x100 x64)) (and (= x100 (x139 x18 x28)) (and (and (and (= (x139 x18 x85) x85) (and (and (and (= x64 (x139 x85 x100)) (and (and (and (= (x139 x85 x64) x18) (and (= (x139 x64 x28) x18) (and (= x100 (x139 x64 x100)) (and (and (= x28 (x139 x64 x64)) (= (x139 x64 x85) x64)) (= x85 (x139 x64 x18)))))) (= (x139 x85 x85) x28)) (= x100 (x139 x85 x18)))) (= (x139 x85 x28) x85)) (= (x139 x18 x64) x64))) (= x18 (x139 x18 x18))) (= x28 (x139 x18 x100))))) (= (x139 x100 x85) x100)) (= x64 (x139 x100 x18))) (= x18 (x139 x100 x100))) (= (x139 x100 x28) x28)))) (= x28 (x139 x28 x18)))))))
(assert (or (= (x139 x28 x28) x28) (or (= (x139 x100 x100) x100) (or (= (x139 x18 x18) x18) (or (= x85 (x139 x85 x85)) (= (x139 x64 x64) x64))))))
(assert (and (and (and (and (and (and (and (and (not (= x100 x64)) (and (not (= x64 x18)) (not (= x64 x85)))) (not (= x28 x64))) (not (= x18 x85))) (not (= x100 x85))) (not (= x28 x85))) (not (= x18 x100))) (not (= x18 x28))) (not (= x100 x28))))
(assert (let ((x133 (x139 x100 x100)) (x38 (x139 x28 x28)) (x123 (x139 x64 x64)) (x121 (x139 x85 x85)) (x74 (x139 x18 x18))) (or (or (and (not (= (x139 x133 x28) x28)) (and (not (= (x139 x133 x100) x100)) (and (and (not (= x85 (x139 x133 x85))) (not (= (x139 x133 x64) x64))) (not (= x18 (x139 x133 x18)))))) (or (and (and (not (= x100 (x139 x74 x100))) (and (not (= x18 (x139 x74 x18))) (and (not (= (x139 x74 x64) x64)) (not (= x85 (x139 x74 x85)))))) (not (= x28 (x139 x74 x28)))) (or (and (not (= x28 (x139 x123 x28))) (and (and (not (= x18 (x139 x123 x18))) (and (not (= x85 (x139 x123 x85))) (not (= x64 (x139 x123 x64))))) (not (= (x139 x123 x100) x100)))) (and (not (= x28 (x139 x121 x28))) (and (not (= x100 (x139 x121 x100))) (and (and (not (= (x139 x121 x64) x64)) (not (= (x139 x121 x85) x85))) (not (= x18 (x139 x121 x18))))))))) (and (and (and (not (= (x139 x38 x18) x18)) (and (not (= x85 (x139 x38 x85))) (not (= x64 (x139 x38 x64))))) (not (= (x139 x38 x100) x100))) (not (= (x139 x38 x28) x28))))))
(assert (let ((x12 (x139 x18 x85)) (x117 (x139 x100 x18)) (x20 (x139 x85 x18)) (x34 (x139 x100 x85)) (x145 (x139 x100 x28)) (x38 (x139 x64 x28)) (x23 (x139 x85 x28)) (x91 (x139 x18 x18)) (x155 (x139 x28 x64)) (x49 (x139 x18 x64)) (x133 (x139 x64 x100)) (x82 (x139 x18 x100)) (x132 (x139 x100 x100)) (x55 (x139 x28 x85)) (x19 (x139 x100 x64)) (x9 (x139 x28 x100)) (x89 (x139 x18 x28)) (x123 (x139 x64 x64)) (x114 (x139 x85 x64)) (x53 (x139 x85 x100)) (x101 (x139 x28 x18)) (x74 (x139 x64 x18)) (x103 (x139 x85 x85)) (x121 (x139 x64 x85)) (x128 (x139 x28 x28))) (and (and (and (and (and (and (and (and (or (or (or (= x123 x18) (or (= x123 x85) (= x123 x64))) (= x100 x123)) (= x123 x28)) (or (= x121 x28) (or (= x100 x121) (or (= x121 x18) (or (= x121 x64) (= x85 x121)))))) (or (or (or (= x74 x18) (or (= x74 x85) (= x64 x74))) (= x100 x74)) (= x28 x74))) (or (or (or (= x18 x133) (or (= x133 x64) (= x133 x85))) (= x133 x100)) (= x133 x28))) (or (= x38 x28) (or (or (= x18 x38) (or (= x85 x38) (= x64 x38))) (= x38 x100)))) (and (or (= x23 x28) (or (= x100 x23) (or (or (= x23 x85) (= x23 x64)) (= x18 x23)))) (and (and (or (or (= x100 x20) (or (= x18 x20) (or (= x20 x85) (= x64 x20)))) (= x28 x20)) (and (or (= x28 x103) (or (= x100 x103) (or (= x18 x103) (or (= x103 x64) (= x103 x85))))) (or (= x114 x28) (or (= x114 x100) (or (= x114 x18) (or (= x114 x64) (= x85 x114))))))) (or (or (= x100 x53) (or (= x18 x53) (or (= x85 x53) (= x64 x53)))) (= x53 x28))))) (and (or (or (or (= x18 x89) (or (= x64 x89) (= x89 x85))) (= x89 x100)) (= x28 x89)) (and (or (= x82 x28) (or (= x100 x82) (or (= x82 x18) (or (= x85 x82) (= x64 x82))))) (and (or (or (= x100 x91) (or (or (= x91 x85) (= x64 x91)) (= x91 x18))) (= x91 x28)) (and (or (or (or (or (= x12 x85) (= x12 x64)) (= x18 x12)) (= x12 x100)) (= x28 x12)) (or (= x28 x49) (or (or (= x49 x18) (or (= x85 x49) (= x49 x64))) (= x100 x49)))))))) (and (and (and (and (or (or (= x100 x34) (or (= x18 x34) (or (= x34 x64) (= x85 x34)))) (= x34 x28)) (or (or (= x100 x19) (or (= x19 x18) (or (= x19 x64) (= x19 x85)))) (= x28 x19))) (or (= x117 x28) (or (= x117 x100) (or (or (= x117 x85) (= x64 x117)) (= x18 x117))))) (or (= x132 x28) (or (or (or (= x132 x85) (= x132 x64)) (= x18 x132)) (= x132 x100)))) (or (= x145 x28) (or (or (= x18 x145) (or (= x145 x64) (= x85 x145))) (= x100 x145))))) (and (and (and (or (or (or (= x18 x101) (or (= x85 x101) (= x64 x101))) (= x100 x101)) (= x28 x101)) (and (or (or (= x100 x155) (or (= x155 x18) (or (= x155 x64) (= x155 x85)))) (= x28 x155)) (or (or (= x100 x55) (or (or (= x55 x64) (= x85 x55)) (= x18 x55))) (= x28 x55)))) (or (= x9 x28) (or (= x100 x9) (or (= x9 x18) (or (= x85 x9) (= x64 x9)))))) (or (= x128 x28) (or (or (or (= x85 x128) (= x128 x64)) (= x128 x18)) (= x100 x128)))))))
(check-sat)
(exit)
